NAME: random-100-20007
TYPE: TSP
COMMENT: size=100 seed=20007
DIMENSION: 202
EDGE_WEIGHT_TYPE: EUC_2D
NODE_COORD_SECTION
+0 649 486
-0 649 486
+1 137 44
-1 981 592
+2 731 63
-2 296 178
+3 69 217
-3 266 262
+4 20 465
-4 390 245
+5 377 403
-5 362 194
+6 857 857
-6 860 892
+7 378 229
-7 515 679
+8 834 866
-8 948 229
+9 774 992
-9 984 824
+10 295 625
-10 425 768
+11 397 477
-11 457 737
+12 326 542
-12 262 692
+13 177 108
-13 687 273
+14 617 899
-14 780 804
+15 1 491
-15 980 14
+16 474 317
-16 211 551
+17 829 206
-17 87 672
+18 124 637
-18 149 774
+19 19 458
-19 930 60
+20 191 982
-20 304 376
+21 582 400
-21 72 917
+22 745 367
-22 61 45
+23 301 131
-23 842 487
+24 144 467
-24 30 438
+25 904 712
-25 435 947
+26 434 767
-26 948 112
+27 334 797
-27 152 380
+28 750 685
-28 298 724
+29 182 161
-29 323 861
+30 280 928
-30 338 720
+31 326 729
-31 483 757
+32 549 343
-32 932 440
+33 45 707
-33 823 968
+34 159 687
-34 388 8
+35 648 59
-35 644 691
+36 528 364
-36 941 6
+37 877 911
-37 703 170
+38 578 821
-38 789 478
+39 878 557
-39 596 533
+40 35 985
-40 208 688
+41 817 425
-41 336 781
+42 30 515
-42 854 565
+43 473 651
-43 521 207
+44 736 272
-44 165 106
+45 871 816
-45 856 693
+46 790 713
-46 860 147
+47 773 659
-47 92 842
+48 381 73
-48 441 282
+49 296 704
-49 270 211
+50 460 362
-50 123 954
+51 787 869
-51 393 307
+52 40 678
-52 785 390
+53 234 270
-53 657 378
+54 716 294
-54 494 868
+55 623 635
-55 922 744
+56 738 119
-56 492 2
+57 68 774
-57 123 438
+58 4 640
-58 815 805
+59 985 924
-59 899 871
+60 268 526
-60 594 256
+61 406 57
-61 849 525
+62 485 160
-62 791 467
+63 272 482
-63 462 964
+64 283 565
-64 135 200
+65 532 812
-65 586 415
+66 108 596
-66 512 836
+67 372 802
-67 516 496
+68 447 50
-68 292 925
+69 862 674
-69 406 735
+70 472 662
-70 339 442
+71 874 867
-71 926 100
+72 118 807
-72 379 618
+73 916 566
-73 698 898
+74 728 648
-74 660 932
+75 308 160
-75 845 131
+76 337 812
-76 563 76
+77 465 483
-77 453 609
+78 845 371
-78 281 454
+79 432 579
-79 423 428
+80 396 579
-80 36 803
+81 611 956
-81 679 777
+82 62 623
-82 957 782
+83 778 948
-83 419 327
+84 989 165
-84 546 869
+85 680 847
-85 231 503
+86 9 719
-86 601 59
+87 94 482
-87 929 341
+88 918 821
-88 286 750
+89 817 29
-89 564 132
+90 211 261
-90 977 493
+91 811 908
-91 131 907
+92 173 526
-92 716 375
+93 727 368
-93 854 692
+94 675 965
-94 924 691
+95 272 275
-95 255 386
+96 322 622
-96 61 515
+97 786 56
-97 476 920
+98 64 210
-98 397 207
+99 421 205
-99 165 272
+100 297 767
-100 48 820
PRECEDENCE_SECTION
+0 -0
+1 -1
+2 -2
+3 -3
+4 -4
+5 -5
+6 -6
+7 -7
+8 -8
+9 -9
+10 -10
+11 -11
+12 -12
+13 -13
+14 -14
+15 -15
+16 -16
+17 -17
+18 -18
+19 -19
+20 -20
+21 -21
+22 -22
+23 -23
+24 -24
+25 -25
+26 -26
+27 -27
+28 -28
+29 -29
+30 -30
+31 -31
+32 -32
+33 -33
+34 -34
+35 -35
+36 -36
+37 -37
+38 -38
+39 -39
+40 -40
+41 -41
+42 -42
+43 -43
+44 -44
+45 -45
+46 -46
+47 -47
+48 -48
+49 -49
+50 -50
+51 -51
+52 -52
+53 -53
+54 -54
+55 -55
+56 -56
+57 -57
+58 -58
+59 -59
+60 -60
+61 -61
+62 -62
+63 -63
+64 -64
+65 -65
+66 -66
+67 -67
+68 -68
+69 -69
+70 -70
+71 -71
+72 -72
+73 -73
+74 -74
+75 -75
+76 -76
+77 -77
+78 -78
+79 -79
+80 -80
+81 -81
+82 -82
+83 -83
+84 -84
+85 -85
+86 -86
+87 -87
+88 -88
+89 -89
+90 -90
+91 -91
+92 -92
+93 -93
+94 -94
+95 -95
+96 -96
+97 -97
+98 -98
+99 -99
+100 -100
EOF
